c This is a CNF SAT formula in the DIMACS CNF format,
c produced with the bc2cnf translator by Tommi Junttila;
c see http://users.ics.aalto.fi/tjunttil/circuits/index.html
c r <-> 1
c sb <-> 2
c sa <-> 2
c x3 <-> 3
c p3 <-> 3
c b3 <-> 4
c a3 <-> 5
c cin3 <-> 6
c gin <-> 6
c and7 <-> 7
c cin2 <-> 8
c g2a <-> 8
c and6 <-> 9
c cin1 <-> 10
c gina <-> 10
c and5 <-> 11
c cin <-> 12
c and4 <-> 13
c p2a <-> 13
c and3 <-> 14
c g2 <-> 14
c x2 <-> 15
c p2 <-> 15
c b2 <-> 16
c a2 <-> 17
c and2 <-> 18
c g1 <-> 18
c x1 <-> 19
c p1 <-> 19
c b1 <-> 20
c a1 <-> 21
c and1 <-> 22
c g0 <-> 22
c x0 <-> 23
c p0 <-> 23
c b0 <-> 24
c a0 <-> 25
p cnf 25 55
1 2 -2 0
1 -2 2 0
-1 2 2 0
-1 -2 -2 0
1 0
2 6 -3 0
2 -6 3 0
-2 6 3 0
-2 -6 -3 0
3 5 -4 0
3 -5 4 0
-3 5 4 0
-3 -5 -4 0
6 -7 0
6 -8 0
-6 8 7 0
-7 10 0
-7 13 0
7 -13 -10 0
8 -9 0
8 -14 0
-8 14 9 0
-9 15 0
-9 18 0
9 -18 -15 0
10 -11 0
10 -22 0
-10 22 11 0
-11 12 0
-11 23 0
11 -23 -12 0
-13 15 0
-13 19 0
13 -19 -15 0
-14 16 0
-14 17 0
14 -17 -16 0
15 17 -16 0
15 -17 16 0
-15 17 16 0
-15 -17 -16 0
-18 20 0
-18 21 0
18 -21 -20 0
19 21 -20 0
19 -21 20 0
-19 21 20 0
-19 -21 -20 0
-22 24 0
-22 25 0
22 -25 -24 0
23 25 -24 0
23 -25 24 0
-23 25 24 0
-23 -25 -24 0
1 0